NAME: random-39-30991
TYPE: TSP
COMMENT: size=39 seed=30991
DIMENSION: 80
EDGE_WEIGHT_TYPE: EUC_2D
NODE_COORD_SECTION
+0 737 587
-0 737 587
+1 660 657
-1 425 512
+2 49 970
-2 445 756
+3 28 685
-3 685 968
+4 104 453
-4 786 555
+5 387 378
-5 575 342
+6 679 93
-6 159 43
+7 532 675
-7 610 779
+8 341 507
-8 993 19
+9 107 332
-9 478 277
+10 512 802
-10 898 467
+11 58 251
-11 570 382
+12 457 759
-12 153 788
+13 532 711
-13 937 70
+14 65 343
-14 711 101
+15 210 161
-15 59 895
+16 472 47
-16 751 611
+17 264 208
-17 819 283
+18 496 843
-18 416 403
+19 266 32
-19 975 736
+20 827 559
-20 662 746
+21 518 275
-21 103 157
+22 763 879
-22 86 922
+23 389 880
-23 839 507
+24 366 854
-24 196 873
+25 294 780
-25 861 226
+26 106 526
-26 458 899
+27 93 8
-27 790 991
+28 306 637
-28 777 853
+29 425 738
-29 885 118
+30 767 664
-30 130 95
+31 141 582
-31 281 785
+32 864 862
-32 786 786
+33 889 927
-33 565 906
+34 656 508
-34 502 256
+35 354 498
-35 313 110
+36 425 694
-36 675 507
+37 974 13
-37 392 223
+38 610 199
-38 143 846
+39 277 759
-39 400 330
PRECEDENCE_SECTION
+0 -0
+1 -1
+2 -2
+3 -3
+4 -4
+5 -5
+6 -6
+7 -7
+8 -8
+9 -9
+10 -10
+11 -11
+12 -12
+13 -13
+14 -14
+15 -15
+16 -16
+17 -17
+18 -18
+19 -19
+20 -20
+21 -21
+22 -22
+23 -23
+24 -24
+25 -25
+26 -26
+27 -27
+28 -28
+29 -29
+30 -30
+31 -31
+32 -32
+33 -33
+34 -34
+35 -35
+36 -36
+37 -37
+38 -38
+39 -39
EOF
